<number of tasks>
89

<cycle time>
92

<task times>
1 28
2 17
3 7
4 10
5 12
6 16
7 13
8 8
9 13
10 24
11 16
12 24
13 12
14 20
15 22
16 22
17 22
18 47
19 6
20 12
21 6
22 22
23 7
24 14
25 68
26 15
27 8
28 74
29 32
30 11
31 18
32 15
33 42
34 27
35 38
36 38
37 26
38 35
39 31
40 8
41 14
42 8
43 8
44 8
45 17
46 7
47 19
48 12
49 24
50 26
51 22
52 14
53 27
54 60
55 4
56 2
57 1
58 9
59 5
60 6
61 7
62 12
63 2
64 11
65 14
66 6
67 21
68 14
69 1
70 6
71 21
72 11
73 14
74 28
75 12
76 11
77 30
78 22
79 14
80 31
81 18
82 16
83 7
84 38
85 8
86 31
87 29
88 12
89 18

<precedence relations>
1,2
2,3
3,4
4,5
4,6
4,7
4,8
4,9
5,10
6,11
7,12
8,18
9,18
10,14
11,12
12,13
13,14
14,15
14,16
15,17
16,54
17,18
18,19
18,20
19,22
20,21
20,28
21,54
22,23
23,24
24,25
25,26
25,27
25,29
26,37
27,33
28,29
29,31
30,54
31,32
32,33
33,34
34,35
35,36
35,37
36,38
37,38
38,39
39,40
39,41
39,42
39,43
40,44
41,53
42,53
43,45
44,52
45,46
46,47
47,48
47,49
49,50
50,51
51,52
52,53
53,68
53,69
53,70
53,71
54,55
55,56
56,57
57,58
57,59
57,60
57,61
57,62
57,63
57,64
57,65
57,66
58,67
59,67
60,67
61,67
62,67
63,67
64,67
65,67
66,67
67,73
68,72
69,72
70,72
71,73
72,78
72,80
73,74
74,75
74,76
75,77
76,81
77,78
78,79
79,81
80,81
81,82
81,84
81,85
82,83
83,86
84,86
85,86
86,87
87,88
87,89

<setup times forward>
4,5:7
4,8:3
4,9:3
5,6:7
5,7:7
5,8:10
5,9:10
5,30:7
6,5:7
6,8:3
6,9:3
6,10:7
6,11:7
7,5:7
7,8:3
7,9:3
7,10:7
7,11:7
7,12:7
8,5:10
8,6:3
8,7:3
8,10:10
8,11:10
8,12:10
8,13:10
8,16:3
8,18:6
8,30:3
9,5:10
9,6:3
9,7:3
9,10:10
9,11:10
9,12:10
9,13:10
9,16:3
9,18:6
9,30:3
10,6:7
10,7:7
10,8:10
10,9:10
10,14:10
10,30:7
11,7:7
11,8:10
11,9:10
11,30:7
12,8:10
12,9:10
12,30:7
13,8:10
13,9:10
13,14:10
13,30:7
14,16:3
14,30:3
15,16:3
15,30:3
16,8:3
16,9:3
16,15:3
16,17:3
16,18:9
16,19:9
16,20:9
16,21:2
16,22:9
16,23:8
16,24:8
16,25:8
16,26:6
16,27:2
16,28:2
16,29:6
16,30:6
16,31:6
16,32:6
16,35:10
16,36:10
16,37:3
16,38:3
16,39:3
16,40:5
16,41:8
16,42:11
16,43:2
16,44:5
16,45:2
16,46:2
16,47:5
16,48:8
16,49:5
16,50:5
16,51:8
16,52:8
16,53:3
16,54:2
16,68:3
16,69:2
16,70:2
16,71:3
16,72:2
16,80:2
17,16:3
17,18:6
17,30:3
18,16:9
18,30:3
19,16:9
19,21:7
19,28:7
19,30:3
19,54:11
19,55:4
19,56:4
19,57:4
19,58:12
19,59:2
19,60:2
19,61:2
19,62:1
19,63:1
19,64:2
19,65:1
19,66:2
19,67:12
20,16:9
20,21:7
20,23:1
20,24:1
20,25:1
20,26:3
20,27:7
20,28:7
20,30:3
21,16:2
21,19:7
21,22:7
21,23:6
21,24:6
21,25:6
21,26:4
21,29:4
21,30:4
21,31:4
21,32:4
21,33:2
21,34:2
21,35:8
21,36:8
21,37:1
21,38:1
21,39:1
21,40:3
21,41:6
21,42:9
21,43:4
21,44:3
21,45:4
21,46:4
21,47:3
21,48:6
21,49:3
21,50:3
21,51:6
21,52:6
21,53:5
21,54:4
21,68:5
21,69:4
21,70:4
21,71:5
21,72:4
21,80:4
22,16:9
22,21:7
22,23:1
22,28:7
22,30:3
22,54:11
22,55:4
22,56:4
22,57:4
22,58:12
22,59:2
22,60:2
22,61:2
22,62:1
22,63:1
22,64:2
22,65:1
22,66:2
22,67:12
23,16:8
23,20:1
23,21:6
23,28:6
23,30:2
23,54:10
23,55:3
23,56:3
23,57:3
23,58:11
23,59:3
23,60:3
23,61:3
23,64:3
23,66:3
23,67:11
24,16:8
24,20:1
24,21:6
24,28:6
24,30:2
24,54:10
24,55:3
24,56:3
24,57:3
24,58:11
24,59:3
24,60:3
24,61:3
24,64:3
24,66:3
24,67:11
25,16:8
25,20:1
25,21:6
25,26:2
25,27:6
25,28:6
25,29:2
25,30:2
25,54:10
25,55:3
25,56:3
25,57:3
25,58:11
25,59:3
25,60:3
25,61:3
25,64:3
25,66:3
25,67:11
26,16:6
26,20:3
26,21:4
26,27:4
26,28:4
26,33:6
26,34:6
26,35:4
26,36:4
26,37:3
26,54:8
26,55:1
26,56:1
26,57:1
26,58:9
26,59:5
26,60:5
26,61:5
26,62:2
26,63:2
26,64:5
26,65:2
26,66:5
26,67:9
27,16:2
27,20:7
27,26:4
27,29:4
27,30:4
27,31:4
27,32:4
27,33:2
27,54:4
27,55:3
27,56:3
27,57:3
27,58:5
27,59:9
27,60:9
27,61:9
27,62:6
27,63:6
27,64:9
27,65:6
27,66:9
27,67:5
28,16:2
28,19:7
28,22:7
28,23:6
28,24:6
28,25:6
28,26:4
28,29:4
28,30:4
28,54:4
28,55:3
28,56:3
28,57:3
28,58:5
28,59:9
28,60:9
28,61:9
28,62:6
28,63:6
28,64:9
28,65:6
28,66:9
28,67:5
29,16:6
29,21:4
29,27:4
29,54:8
29,55:1
29,56:1
29,57:1
29,58:9
29,59:5
29,60:5
29,61:5
29,62:2
29,63:2
29,64:5
29,65:2
29,66:5
29,67:9
30,5:7
30,8:3
30,9:3
30,10:7
30,11:7
30,12:7
30,13:7
30,14:3
30,15:3
30,16:6
30,17:3
30,18:3
30,19:3
30,20:3
30,21:4
30,22:3
30,23:2
30,24:2
30,25:2
30,27:4
30,28:4
30,33:6
30,34:6
30,35:4
30,36:4
30,37:3
30,38:3
30,39:3
30,40:1
30,41:2
30,42:5
30,43:8
30,44:1
30,45:8
30,46:8
30,47:1
30,48:2
30,49:1
30,50:1
30,51:2
30,52:2
30,53:9
30,54:8
30,68:9
30,69:8
30,70:8
30,71:9
30,72:8
30,80:8
31,16:6
31,21:4
31,27:4
31,54:8
31,55:1
31,56:1
31,57:1
31,58:9
31,59:5
31,60:5
31,61:5
31,62:2
31,63:2
31,64:5
31,65:2
31,66:5
31,67:9
32,16:6
32,21:4
32,27:4
32,33:6
32,54:8
32,55:1
32,56:1
32,57:1
32,58:9
32,59:5
32,60:5
32,61:5
32,62:2
32,63:2
32,64:5
32,65:2
32,66:5
32,67:9
33,21:2
33,26:6
33,30:6
33,54:2
33,55:5
33,56:5
33,57:5
33,58:3
33,59:11
33,60:11
33,61:11
33,62:8
33,63:8
33,64:11
33,65:8
33,66:11
33,67:3
34,21:2
34,26:6
34,30:6
34,35:10
34,54:2
34,55:5
34,56:5
34,57:5
34,58:3
34,59:11
34,60:11
34,61:11
34,62:8
34,63:8
34,64:11
34,65:8
34,66:11
34,67:3
35,16:10
35,21:8
35,26:4
35,30:4
35,37:7
35,54:12
35,55:5
35,56:5
35,57:5
35,58:13
35,59:1
35,60:1
35,61:1
35,62:2
35,63:2
35,64:1
35,65:2
35,66:1
35,67:13
36,16:10
36,21:8
36,26:4
36,30:4
36,37:7
36,38:7
36,54:12
36,55:5
36,56:5
36,57:5
36,58:13
36,59:1
36,60:1
36,61:1
36,62:2
36,63:2
36,64:1
36,65:2
36,66:1
36,67:13
37,16:3
37,21:1
37,30:3
37,36:7
37,54:5
37,55:2
37,56:2
37,57:2
37,58:6
37,59:8
37,60:8
37,61:8
37,62:5
37,63:5
37,64:8
37,65:5
37,66:8
37,67:6
38,16:3
38,21:1
38,30:3
38,54:5
38,55:2
38,56:2
38,57:2
38,58:6
38,59:8
38,60:8
38,61:8
38,62:5
38,63:5
38,64:8
38,65:5
38,66:8
38,67:6
39,16:3
39,21:1
39,30:3
39,40:2
39,41:5
39,42:8
39,43:5
39,54:5
39,55:2
39,56:2
39,57:2
39,58:6
39,59:8
39,60:8
39,61:8
39,62:5
39,63:5
39,64:8
39,65:5
39,66:8
39,67:6
40,16:5
40,21:3
40,30:1
40,41:3
40,42:6
40,43:7
40,45:7
40,46:7
40,48:3
40,51:3
40,54:7
40,58:8
40,59:6
40,60:6
40,61:6
40,62:3
40,63:3
40,64:6
40,65:3
40,66:6
40,67:8
41,16:8
41,21:6
41,30:2
41,40:3
41,42:3
41,43:10
41,44:3
41,45:10
41,46:10
41,47:3
41,49:3
41,50:3
41,53:11
41,54:10
41,55:3
41,56:3
41,57:3
41,58:11
41,59:3
41,60:3
41,61:3
41,64:3
41,66:3
41,67:11
42,16:11
42,21:9
42,30:5
42,40:6
42,41:3
42,43:13
42,44:6
42,45:13
42,46:13
42,47:6
42,48:3
42,49:6
42,50:6
42,51:3
42,52:3
42,53:14
42,54:13
42,55:6
42,56:6
42,57:6
42,58:14
42,62:3
42,63:3
42,65:3
42,67:14
43,16:2
43,21:4
43,30:8
43,40:7
43,41:10
43,42:13
43,44:7
43,55:7
43,56:7
43,57:7
43,58:1
43,59:13
43,60:13
43,61:13
43,62:10
43,63:10
43,64:13
43,65:10
43,66:13
43,67:1
44,16:5
44,21:3
44,30:1
44,41:3
44,42:6
44,43:7
44,45:7
44,46:7
44,48:3
44,51:3
44,52:3
44,54:7
44,58:8
44,59:6
44,60:6
44,61:6
44,62:3
44,63:3
44,64:6
44,65:3
44,66:6
44,67:8
45,16:2
45,21:4
45,30:8
45,40:7
45,41:10
45,42:13
45,44:7
45,55:7
45,56:7
45,57:7
45,58:1
45,59:13
45,60:13
45,61:13
45,62:10
45,63:10
45,64:13
45,65:10
45,66:13
45,67:1
46,16:2
46,21:4
46,30:8
46,40:7
46,41:10
46,42:13
46,44:7
46,47:7
46,55:7
46,56:7
46,57:7
46,58:1
46,59:13
46,60:13
46,61:13
46,62:10
46,63:10
46,64:13
46,65:10
46,66:13
46,67:1
47,16:5
47,21:3
47,30:1
47,41:3
47,42:6
47,48:3
47,54:7
47,58:8
47,59:6
47,60:6
47,61:6
47,62:3
47,63:3
47,64:6
47,65:3
47,66:6
47,67:8
48,16:8
48,21:6
48,30:2
48,40:3
48,42:3
48,44:3
48,49:3
48,50:3
48,53:11
48,54:10
48,55:3
48,56:3
48,57:3
48,58:11
48,59:3
48,60:3
48,61:3
48,64:3
48,66:3
48,67:11
48,68:11
48,69:10
48,70:10
48,71:11
48,72:10
48,73:10
48,74:10
48,75:5
48,76:5
48,77:5
48,78:5
48,79:5
48,80:10
48,81:4
48,82:4
48,83:4
48,84:4
48,85:4
49,16:5
49,21:3
49,30:1
49,41:3
49,42:6
49,48:3
49,54:7
49,58:8
49,59:6
49,60:6
49,61:6
49,62:3
49,63:3
49,64:6
49,65:3
49,66:6
49,67:8
50,16:5
50,21:3
50,30:1
50,41:3
50,42:6
50,48:3
50,51:3
50,54:7
50,58:8
50,59:6
50,60:6
50,61:6
50,62:3
50,63:3
50,64:6
50,65:3
50,66:6
50,67:8
51,16:8
51,21:6
51,30:2
51,40:3
51,42:3
51,44:3
51,54:10
51,55:3
51,56:3
51,57:3
51,58:11
51,59:3
51,60:3
51,61:3
51,64:3
51,66:3
51,67:11
52,16:8
52,21:6
52,30:2
52,42:3
52,53:11
52,54:10
52,55:3
52,56:3
52,57:3
52,58:11
52,59:3
52,60:3
52,61:3
52,64:3
52,66:3
52,67:11
53,16:3
53,21:5
53,30:9
53,48:11
53,54:1
53,55:8
53,56:8
53,57:8
53,59:14
53,60:14
53,61:14
53,62:11
53,63:11
53,64:14
53,65:11
53,66:14
53,69:1
53,70:1
54,19:11
54,22:11
54,23:10
54,24:10
54,25:10
54,26:8
54,27:4
54,28:4
54,29:8
54,31:8
54,32:8
54,33:2
54,34:2
54,35:12
54,36:12
54,37:5
54,38:5
54,39:5
54,40:7
54,41:10
54,42:13
54,44:7
54,47:7
54,48:10
54,49:7
54,50:7
54,51:10
54,52:10
54,53:1
54,55:7
54,68:1
54,71:1
55,19:4
55,22:4
55,23:3
55,24:3
55,25:3
55,26:1
55,27:3
55,28:3
55,29:1
55,31:1
55,32:1
55,33:5
55,34:5
55,35:5
55,36:5
55,37:2
55,38:2
55,39:2
55,41:3
55,42:6
55,43:7
55,45:7
55,46:7
55,48:3
55,51:3
55,52:3
55,53:8
55,68:8
55,69:7
55,70:7
55,71:8
55,72:7
55,80:7
56,19:4
56,22:4
56,23:3
56,24:3
56,25:3
56,26:1
56,27:3
56,28:3
56,29:1
56,31:1
56,32:1
56,33:5
56,34:5
56,35:5
56,36:5
56,37:2
56,38:2
56,39:2
56,41:3
56,42:6
56,43:7
56,45:7
56,46:7
56,48:3
56,51:3
56,52:3
56,53:8
56,68:8
56,69:7
56,70:7
56,71:8
56,72:7
56,80:7
57,19:4
57,22:4
57,23:3
57,24:3
57,25:3
57,26:1
57,27:3
57,28:3
57,29:1
57,31:1
57,32:1
57,33:5
57,34:5
57,35:5
57,36:5
57,37:2
57,38:2
57,39:2
57,41:3
57,42:6
57,43:7
57,45:7
57,46:7
57,48:3
57,51:3
57,52:3
57,53:8
57,58:8
57,59:6
57,60:6
57,61:6
57,62:3
57,63:3
57,64:6
57,65:3
57,66:6
57,68:8
57,69:7
57,70:7
57,71:8
57,72:7
57,80:7
58,19:12
58,22:12
58,23:11
58,24:11
58,25:11
58,26:9
58,27:5
58,28:5
58,29:9
58,31:9
58,32:9
58,33:3
58,34:3
58,35:13
58,36:13
58,37:6
58,38:6
58,39:6
58,40:8
58,41:11
58,42:14
58,43:1
58,44:8
58,45:1
58,46:1
58,47:8
58,48:11
58,49:8
58,50:8
58,51:11
58,52:11
58,59:14
58,60:14
58,61:14
58,62:11
58,63:11
58,64:14
58,65:11
58,66:14
58,69:1
58,70:1
58,72:1
58,80:1
59,19:2
59,22:2
59,23:3
59,24:3
59,25:3
59,26:5
59,27:9
59,28:9
59,29:5
59,31:5
59,32:5
59,33:11
59,34:11
59,35:1
59,36:1
59,37:8
59,38:8
59,39:8
59,40:6
59,41:3
59,43:13
59,44:6
59,45:13
59,46:13
59,47:6
59,48:3
59,49:6
59,50:6
59,51:3
59,52:3
59,53:14
59,58:14
59,62:3
59,63:3
59,65:3
59,67:14
59,68:14
59,69:13
59,70:13
59,71:14
59,72:13
59,80:13
60,19:2
60,22:2
60,23:3
60,24:3
60,25:3
60,26:5
60,27:9
60,28:9
60,29:5
60,31:5
60,32:5
60,33:11
60,34:11
60,35:1
60,36:1
60,37:8
60,38:8
60,39:8
60,40:6
60,41:3
60,43:13
60,44:6
60,45:13
60,46:13
60,47:6
60,48:3
60,49:6
60,50:6
60,51:3
60,52:3
60,53:14
60,58:14
60,62:3
60,63:3
60,65:3
60,67:14
60,68:14
60,69:13
60,70:13
60,71:14
60,72:13
60,80:13
61,19:2
61,22:2
61,23:3
61,24:3
61,25:3
61,26:5
61,27:9
61,28:9
61,29:5
61,31:5
61,32:5
61,33:11
61,34:11
61,35:1
61,36:1
61,37:8
61,38:8
61,39:8
61,40:6
61,41:3
61,43:13
61,44:6
61,45:13
61,46:13
61,47:6
61,48:3
61,49:6
61,50:6
61,51:3
61,52:3
61,53:14
61,58:14
61,62:3
61,63:3
61,65:3
61,67:14
61,68:14
61,69:13
61,70:13
61,71:14
61,72:13
61,80:13
62,19:1
62,22:1
62,26:2
62,27:6
62,28:6
62,29:2
62,31:2
62,32:2
62,33:8
62,34:8
62,35:2
62,36:2
62,37:5
62,38:5
62,39:5
62,40:3
62,42:3
62,43:10
62,44:3
62,45:10
62,46:10
62,47:3
62,49:3
62,50:3
62,53:11
62,58:11
62,59:3
62,60:3
62,61:3
62,64:3
62,66:3
62,67:11
62,68:11
62,69:10
62,70:10
62,71:11
62,72:10
62,80:10
63,19:1
63,22:1
63,26:2
63,27:6
63,28:6
63,29:2
63,31:2
63,32:2
63,33:8
63,34:8
63,35:2
63,36:2
63,37:5
63,38:5
63,39:5
63,40:3
63,42:3
63,43:10
63,44:3
63,45:10
63,46:10
63,47:3
63,49:3
63,50:3
63,53:11
63,58:11
63,59:3
63,60:3
63,61:3
63,64:3
63,66:3
63,67:11
63,68:11
63,69:10
63,70:10
63,71:11
63,72:10
63,80:10
64,19:2
64,22:2
64,23:3
64,24:3
64,25:3
64,26:5
64,27:9
64,28:9
64,29:5
64,31:5
64,32:5
64,33:11
64,34:11
64,35:1
64,36:1
64,37:8
64,38:8
64,39:8
64,40:6
64,41:3
64,43:13
64,44:6
64,45:13
64,46:13
64,47:6
64,48:3
64,49:6
64,50:6
64,51:3
64,52:3
64,53:14
64,58:14
64,62:3
64,63:3
64,65:3
64,67:14
64,68:14
64,69:13
64,70:13
64,71:14
64,72:13
64,80:13
65,19:1
65,22:1
65,26:2
65,27:6
65,28:6
65,29:2
65,31:2
65,32:2
65,33:8
65,34:8
65,35:2
65,36:2
65,37:5
65,38:5
65,39:5
65,40:3
65,42:3
65,43:10
65,44:3
65,45:10
65,46:10
65,47:3
65,49:3
65,50:3
65,53:11
65,58:11
65,59:3
65,60:3
65,61:3
65,64:3
65,66:3
65,67:11
65,68:11
65,69:10
65,70:10
65,71:11
65,72:10
65,80:10
66,19:2
66,22:2
66,23:3
66,24:3
66,25:3
66,26:5
66,27:9
66,28:9
66,29:5
66,31:5
66,32:5
66,33:11
66,34:11
66,35:1
66,36:1
66,37:8
66,38:8
66,39:8
66,40:6
66,41:3
66,43:13
66,44:6
66,45:13
66,46:13
66,47:6
66,48:3
66,49:6
66,50:6
66,51:3
66,52:3
66,53:14
66,58:14
66,62:3
66,63:3
66,65:3
66,67:14
66,68:14
66,69:13
66,70:13
66,71:14
66,72:13
66,80:13
67,19:12
67,22:12
67,23:11
67,24:11
67,25:11
67,26:9
67,27:5
67,28:5
67,29:9
67,31:9
67,32:9
67,33:3
67,34:3
67,35:13
67,36:13
67,37:6
67,38:6
67,39:6
67,40:8
67,41:11
67,42:14
67,43:1
67,44:8
67,45:1
67,46:1
67,47:8
67,48:11
67,49:8
67,50:8
67,51:11
67,52:11
67,69:1
67,70:1
67,72:1
67,73:1
67,80:1
68,16:3
68,21:5
68,30:9
68,48:11
68,54:1
68,55:8
68,56:8
68,57:8
68,59:14
68,60:14
68,61:14
68,62:11
68,63:11
68,64:14
68,65:11
68,66:14
68,69:1
68,70:1
68,72:1
68,73:1
68,74:1
68,75:16
68,76:16
68,77:16
69,16:2
69,21:4
69,30:8
69,48:10
69,55:7
69,56:7
69,57:7
69,58:1
69,59:13
69,60:13
69,61:13
69,62:10
69,63:10
69,64:13
69,65:10
69,66:13
69,67:1
69,68:1
69,71:1
69,75:15
69,76:15
69,77:15
70,16:2
70,21:4
70,30:8
70,48:10
70,55:7
70,56:7
70,57:7
70,58:1
70,59:13
70,60:13
70,61:13
70,62:10
70,63:10
70,64:13
70,65:10
70,66:13
70,67:1
70,68:1
70,71:1
70,75:15
70,76:15
70,77:15
71,16:3
71,21:5
71,30:9
71,48:11
71,54:1
71,55:8
71,56:8
71,57:8
71,59:14
71,60:14
71,61:14
71,62:11
71,63:11
71,64:14
71,65:11
71,66:14
71,69:1
71,70:1
71,72:1
71,73:1
71,80:1
72,16:2
72,21:4
72,30:8
72,48:10
72,55:7
72,56:7
72,57:7
72,58:1
72,59:13
72,60:13
72,61:13
72,62:10
72,63:10
72,64:13
72,65:10
72,66:13
72,67:1
72,71:1
72,75:15
72,76:15
72,77:15
72,78:15
73,48:10
73,68:1
74,48:10
74,68:1
74,75:15
74,76:15
75,48:5
75,68:16
75,69:15
75,70:15
75,72:15
75,80:15
76,48:5
76,68:16
76,69:15
76,70:15
76,72:15
76,80:15
76,81:9
77,48:5
77,68:16
77,69:15
77,70:15
77,72:15
77,80:15
78,48:5
78,80:15
79,48:5
79,80:15
79,81:9
80,16:2
80,21:4
80,30:8
80,48:10
80,55:7
80,56:7
80,57:7
80,58:1
80,59:13
80,60:13
80,61:13
80,62:10
80,63:10
80,64:13
80,65:10
80,66:13
80,67:1
80,71:1
80,75:15
80,76:15
80,77:15
80,78:15
80,79:15
80,81:6
81,48:4
82,48:4
83,48:4
83,86:4
84,48:4
84,86:4
85,48:4
85,86:4

<setup times backward>
5,1:7
5,2:7
5,3:7
5,4:7
5,6:7
5,7:7
5,8:10
5,9:10
5,30:7
6,8:3
6,9:3
7,8:3
7,9:3
8,16:3
9,16:3
10,1:7
10,2:7
10,3:7
10,4:7
10,6:7
10,7:7
10,8:10
10,9:10
10,30:7
11,1:7
11,2:7
11,3:7
11,4:7
11,6:7
11,7:7
11,8:10
11,9:10
11,30:7
12,1:7
12,2:7
12,3:7
12,4:7
12,6:7
12,7:7
12,8:10
12,9:10
12,30:7
13,1:7
13,2:7
13,3:7
13,4:7
13,6:7
13,7:7
13,8:10
13,9:10
13,30:7
15,16:3
16,43:2
16,45:2
16,46:2
16,53:3
16,68:3
16,69:2
16,70:2
16,71:3
16,72:2
16,80:2
17,16:3
18,1:3
18,2:3
18,3:3
18,4:3
18,6:3
18,7:3
18,8:6
18,9:6
18,14:6
18,15:6
18,16:9
18,17:6
18,30:3
19,1:3
19,2:3
19,3:3
19,4:3
19,6:3
19,7:3
19,8:6
19,9:6
19,14:6
19,15:6
19,16:9
19,17:6
19,21:7
19,28:7
19,30:3
19,54:11
19,55:4
19,56:4
19,57:4
19,58:12
19,62:1
19,63:1
19,65:1
19,67:12
20,1:3
20,2:3
20,3:3
20,4:3
20,6:3
20,7:3
20,8:6
20,9:6
20,14:6
20,15:6
20,16:9
20,17:6
20,23:1
20,24:1
20,25:1
20,26:3
20,27:7
20,30:3
21,16:2
21,33:2
21,34:2
21,43:4
21,45:4
21,46:4
21,53:5
21,68:5
21,69:4
21,70:4
21,71:5
21,72:4
21,80:4
22,1:3
22,2:3
22,3:3
22,4:3
22,6:3
22,7:3
22,8:6
22,9:6
22,14:6
22,15:6
22,16:9
22,17:6
22,21:7
22,28:7
22,30:3
22,54:11
22,55:4
22,56:4
22,57:4
22,58:12
22,62:1
22,63:1
22,65:1
22,67:12
23,1:2
23,2:2
23,3:2
23,4:2
23,6:2
23,7:2
23,8:5
23,9:5
23,14:5
23,15:5
23,16:8
23,17:5
23,21:6
23,28:6
23,30:2
23,54:10
23,55:3
23,56:3
23,57:3
23,58:11
23,67:11
24,1:2
24,2:2
24,3:2
24,4:2
24,6:2
24,7:2
24,8:5
24,9:5
24,14:5
24,15:5
24,16:8
24,17:5
24,21:6
24,28:6
24,30:2
24,54:10
24,55:3
24,56:3
24,57:3
24,58:11
24,67:11
25,1:2
25,2:2
25,3:2
25,4:2
25,6:2
25,7:2
25,8:5
25,9:5
25,14:5
25,15:5
25,16:8
25,17:5
25,21:6
25,28:6
25,30:2
25,54:10
25,55:3
25,56:3
25,57:3
25,58:11
25,67:11
26,8:3
26,9:3
26,14:3
26,15:3
26,16:6
26,17:3
26,21:4
26,27:4
26,28:4
26,33:6
26,34:6
26,54:8
26,55:1
26,56:1
26,57:1
26,58:9
26,67:9
27,16:2
27,54:4
27,58:5
27,67:5
28,16:2
28,54:4
28,58:5
28,67:5
29,8:3
29,9:3
29,14:3
29,15:3
29,16:6
29,17:3
29,21:4
29,27:4
29,28:4
29,54:8
29,55:1
29,56:1
29,57:1
29,58:9
29,67:9
30,8:3
30,9:3
30,14:3
30,15:3
30,16:6
30,17:3
30,21:4
30,27:4
30,28:4
30,33:6
30,34:6
30,37:3
30,38:3
30,39:3
30,40:1
30,43:8
30,44:1
30,45:8
30,46:8
30,47:1
30,49:1
30,50:1
30,53:9
30,68:9
30,69:8
30,70:8
30,71:9
30,72:8
30,80:8
31,8:3
31,9:3
31,14:3
31,15:3
31,16:6
31,17:3
31,21:4
31,27:4
31,28:4
31,54:8
31,55:1
31,56:1
31,57:1
31,58:9
31,67:9
32,8:3
32,9:3
32,14:3
32,15:3
32,16:6
32,17:3
32,21:4
32,27:4
32,28:4
32,54:8
32,55:1
32,56:1
32,57:1
32,58:9
32,67:9
33,54:2
33,58:3
33,67:3
34,54:2
34,58:3
34,67:3
35,1:4
35,2:4
35,3:4
35,4:4
35,6:4
35,7:4
35,8:7
35,9:7
35,14:7
35,15:7
35,16:10
35,17:7
35,18:1
35,19:1
35,20:1
35,21:8
35,22:1
35,23:2
35,24:2
35,25:2
35,26:4
35,27:8
35,28:8
35,29:4
35,30:4
35,31:4
35,32:4
35,33:10
35,34:10
35,54:12
35,55:5
35,56:5
35,57:5
35,58:13
35,62:2
35,63:2
35,65:2
35,67:13
36,1:4
36,2:4
36,3:4
36,4:4
36,6:4
36,7:4
36,8:7
36,9:7
36,14:7
36,15:7
36,16:10
36,17:7
36,18:1
36,19:1
36,20:1
36,21:8
36,22:1
36,23:2
36,24:2
36,25:2
36,26:4
36,27:8
36,28:8
36,29:4
36,30:4
36,31:4
36,32:4
36,33:10
36,34:10
36,37:7
36,54:12
36,55:5
36,56:5
36,57:5
36,58:13
36,62:2
36,63:2
36,65:2
36,67:13
37,16:3
37,21:1
37,27:1
37,28:1
37,33:3
37,34:3
37,54:5
37,58:6
37,67:6
38,16:3
38,21:1
38,27:1
38,28:1
38,33:3
38,34:3
38,54:5
38,58:6
38,67:6
39,16:3
39,21:1
39,27:1
39,28:1
39,33:3
39,34:3
39,54:5
39,58:6
39,67:6
40,8:2
40,9:2
40,14:2
40,15:2
40,16:5
40,17:2
40,21:3
40,27:3
40,28:3
40,33:5
40,34:5
40,37:2
40,38:2
40,39:2
40,43:7
40,45:7
40,46:7
40,54:7
40,58:8
40,67:8
41,1:2
41,2:2
41,3:2
41,4:2
41,6:2
41,7:2
41,8:5
41,9:5
41,14:5
41,15:5
41,16:8
41,17:5
41,21:6
41,26:2
41,27:6
41,28:6
41,29:2
41,30:2
41,31:2
41,32:2
41,33:8
41,34:8
41,37:5
41,38:5
41,39:5
41,40:3
41,43:10
41,44:3
41,45:10
41,46:10
41,47:3
41,49:3
41,50:3
41,54:10
41,55:3
41,56:3
41,57:3
41,58:11
41,67:11
42,1:5
42,2:5
42,3:5
42,4:5
42,6:5
42,7:5
42,8:8
42,9:8
42,14:8
42,15:8
42,16:11
42,17:8
42,18:2
42,19:2
42,20:2
42,21:9
42,22:2
42,23:3
42,24:3
42,25:3
42,26:5
42,27:9
42,28:9
42,29:5
42,30:5
42,31:5
42,32:5
42,33:11
42,34:11
42,35:1
42,36:1
42,37:8
42,38:8
42,39:8
42,40:6
42,41:3
42,43:13
42,44:6
42,45:13
42,46:13
42,47:6
42,48:3
42,49:6
42,50:6
42,51:3
42,52:3
42,54:13
42,55:6
42,56:6
42,57:6
42,58:14
42,62:3
42,63:3
42,65:3
42,67:14
43,58:1
43,67:1
44,8:2
44,9:2
44,14:2
44,15:2
44,16:5
44,17:2
44,21:3
44,27:3
44,28:3
44,33:5
44,34:5
44,37:2
44,38:2
44,39:2
44,43:7
44,45:7
44,46:7
44,54:7
44,58:8
44,67:8
45,58:1
45,67:1
46,58:1
46,67:1
47,8:2
47,9:2
47,14:2
47,15:2
47,16:5
47,17:2
47,21:3
47,27:3
47,28:3
47,33:5
47,34:5
47,37:2
47,38:2
47,39:2
47,43:7
47,45:7
47,46:7
47,54:7
47,58:8
47,67:8
48,1:2
48,2:2
48,3:2
48,4:2
48,6:2
48,7:2
48,8:5
48,9:5
48,14:5
48,15:5
48,16:8
48,17:5
48,21:6
48,26:2
48,27:6
48,28:6
48,29:2
48,30:2
48,31:2
48,32:2
48,33:8
48,34:8
48,37:5
48,38:5
48,39:5
48,40:3
48,43:10
48,44:3
48,45:10
48,46:10
48,47:3
48,49:3
48,50:3
48,53:11
48,54:10
48,55:3
48,56:3
48,57:3
48,58:11
48,67:11
48,68:11
48,69:10
48,70:10
48,71:11
48,72:10
48,73:10
48,74:10
48,80:10
48,81:4
48,82:4
48,83:4
48,84:4
48,85:4
49,8:2
49,9:2
49,14:2
49,15:2
49,16:5
49,17:2
49,21:3
49,27:3
49,28:3
49,33:5
49,34:5
49,37:2
49,38:2
49,39:2
49,43:7
49,45:7
49,46:7
49,54:7
49,58:8
49,67:8
50,8:2
50,9:2
50,14:2
50,15:2
50,16:5
50,17:2
50,21:3
50,27:3
50,28:3
50,33:5
50,34:5
50,37:2
50,38:2
50,39:2
50,43:7
50,45:7
50,46:7
50,54:7
50,58:8
50,67:8
51,1:2
51,2:2
51,3:2
51,4:2
51,6:2
51,7:2
51,8:5
51,9:5
51,14:5
51,15:5
51,16:8
51,17:5
51,21:6
51,26:2
51,27:6
51,28:6
51,29:2
51,30:2
51,31:2
51,32:2
51,33:8
51,34:8
51,37:5
51,38:5
51,39:5
51,40:3
51,43:10
51,44:3
51,45:10
51,46:10
51,47:3
51,49:3
51,50:3
51,54:10
51,55:3
51,56:3
51,57:3
51,58:11
51,67:11
52,1:2
52,2:2
52,3:2
52,4:2
52,6:2
52,7:2
52,8:5
52,9:5
52,14:5
52,15:5
52,16:8
52,17:5
52,21:6
52,26:2
52,27:6
52,28:6
52,29:2
52,30:2
52,31:2
52,32:2
52,33:8
52,34:8
52,37:5
52,38:5
52,39:5
52,40:3
52,43:10
52,44:3
52,45:10
52,46:10
52,47:3
52,49:3
52,50:3
52,54:10
52,55:3
52,56:3
52,57:3
52,58:11
52,67:11
54,53:1
54,68:1
54,71:1
55,8:2
55,9:2
55,14:2
55,15:2
55,16:5
55,17:2
55,21:3
55,27:3
55,28:3
55,33:5
55,34:5
55,37:2
55,38:2
55,39:2
55,43:7
55,45:7
55,46:7
55,53:8
55,54:7
55,68:8
55,69:7
55,70:7
55,71:8
55,72:7
55,80:7
56,8:2
56,9:2
56,14:2
56,15:2
56,16:5
56,17:2
56,21:3
56,27:3
56,28:3
56,33:5
56,34:5
56,37:2
56,38:2
56,39:2
56,43:7
56,45:7
56,46:7
56,53:8
56,54:7
56,68:8
56,69:7
56,70:7
56,71:8
56,72:7
56,80:7
57,8:2
57,9:2
57,14:2
57,15:2
57,16:5
57,17:2
57,21:3
57,27:3
57,28:3
57,33:5
57,34:5
57,37:2
57,38:2
57,39:2
57,43:7
57,45:7
57,46:7
57,53:8
57,54:7
57,68:8
57,69:7
57,70:7
57,71:8
57,72:7
57,80:7
59,1:5
59,2:5
59,3:5
59,4:5
59,6:5
59,7:5
59,8:8
59,9:8
59,14:8
59,15:8
59,16:11
59,17:8
59,18:2
59,19:2
59,20:2
59,21:9
59,22:2
59,23:3
59,24:3
59,25:3
59,26:5
59,27:9
59,28:9
59,29:5
59,30:5
59,31:5
59,32:5
59,33:11
59,34:11
59,35:1
59,36:1
59,37:8
59,38:8
59,39:8
59,40:6
59,41:3
59,43:13
59,44:6
59,45:13
59,46:13
59,47:6
59,48:3
59,49:6
59,50:6
59,51:3
59,52:3
59,53:14
59,54:13
59,55:6
59,56:6
59,57:6
59,58:14
59,62:3
59,63:3
59,65:3
59,68:14
59,69:13
59,70:13
59,71:14
59,72:13
59,80:13
60,1:5
60,2:5
60,3:5
60,4:5
60,6:5
60,7:5
60,8:8
60,9:8
60,14:8
60,15:8
60,16:11
60,17:8
60,18:2
60,19:2
60,20:2
60,21:9
60,22:2
60,23:3
60,24:3
60,25:3
60,26:5
60,27:9
60,28:9
60,29:5
60,30:5
60,31:5
60,32:5
60,33:11
60,34:11
60,35:1
60,36:1
60,37:8
60,38:8
60,39:8
60,40:6
60,41:3
60,43:13
60,44:6
60,45:13
60,46:13
60,47:6
60,48:3
60,49:6
60,50:6
60,51:3
60,52:3
60,53:14
60,54:13
60,55:6
60,56:6
60,57:6
60,58:14
60,62:3
60,63:3
60,65:3
60,68:14
60,69:13
60,70:13
60,71:14
60,72:13
60,80:13
61,1:5
61,2:5
61,3:5
61,4:5
61,6:5
61,7:5
61,8:8
61,9:8
61,14:8
61,15:8
61,16:11
61,17:8
61,18:2
61,19:2
61,20:2
61,21:9
61,22:2
61,23:3
61,24:3
61,25:3
61,26:5
61,27:9
61,28:9
61,29:5
61,30:5
61,31:5
61,32:5
61,33:11
61,34:11
61,35:1
61,36:1
61,37:8
61,38:8
61,39:8
61,40:6
61,41:3
61,43:13
61,44:6
61,45:13
61,46:13
61,47:6
61,48:3
61,49:6
61,50:6
61,51:3
61,52:3
61,53:14
61,54:13
61,55:6
61,56:6
61,57:6
61,58:14
61,62:3
61,63:3
61,65:3
61,68:14
61,69:13
61,70:13
61,71:14
61,72:13
61,80:13
62,1:2
62,2:2
62,3:2
62,4:2
62,6:2
62,7:2
62,8:5
62,9:5
62,14:5
62,15:5
62,16:8
62,17:5
62,21:6
62,26:2
62,27:6
62,28:6
62,29:2
62,30:2
62,31:2
62,32:2
62,33:8
62,34:8
62,37:5
62,38:5
62,39:5
62,40:3
62,43:10
62,44:3
62,45:10
62,46:10
62,47:3
62,49:3
62,50:3
62,53:11
62,54:10
62,55:3
62,56:3
62,57:3
62,58:11
62,68:11
62,69:10
62,70:10
62,71:11
62,72:10
62,80:10
63,1:2
63,2:2
63,3:2
63,4:2
63,6:2
63,7:2
63,8:5
63,9:5
63,14:5
63,15:5
63,16:8
63,17:5
63,21:6
63,26:2
63,27:6
63,28:6
63,29:2
63,30:2
63,31:2
63,32:2
63,33:8
63,34:8
63,37:5
63,38:5
63,39:5
63,40:3
63,43:10
63,44:3
63,45:10
63,46:10
63,47:3
63,49:3
63,50:3
63,53:11
63,54:10
63,55:3
63,56:3
63,57:3
63,58:11
63,68:11
63,69:10
63,70:10
63,71:11
63,72:10
63,80:10
64,1:5
64,2:5
64,3:5
64,4:5
64,6:5
64,7:5
64,8:8
64,9:8
64,14:8
64,15:8
64,16:11
64,17:8
64,18:2
64,19:2
64,20:2
64,21:9
64,22:2
64,23:3
64,24:3
64,25:3
64,26:5
64,27:9
64,28:9
64,29:5
64,30:5
64,31:5
64,32:5
64,33:11
64,34:11
64,35:1
64,36:1
64,37:8
64,38:8
64,39:8
64,40:6
64,41:3
64,43:13
64,44:6
64,45:13
64,46:13
64,47:6
64,48:3
64,49:6
64,50:6
64,51:3
64,52:3
64,53:14
64,54:13
64,55:6
64,56:6
64,57:6
64,58:14
64,62:3
64,63:3
64,65:3
64,68:14
64,69:13
64,70:13
64,71:14
64,72:13
64,80:13
65,1:2
65,2:2
65,3:2
65,4:2
65,6:2
65,7:2
65,8:5
65,9:5
65,14:5
65,15:5
65,16:8
65,17:5
65,21:6
65,26:2
65,27:6
65,28:6
65,29:2
65,30:2
65,31:2
65,32:2
65,33:8
65,34:8
65,37:5
65,38:5
65,39:5
65,40:3
65,43:10
65,44:3
65,45:10
65,46:10
65,47:3
65,49:3
65,50:3
65,53:11
65,54:10
65,55:3
65,56:3
65,57:3
65,58:11
65,68:11
65,69:10
65,70:10
65,71:11
65,72:10
65,80:10
66,1:5
66,2:5
66,3:5
66,4:5
66,6:5
66,7:5
66,8:8
66,9:8
66,14:8
66,15:8
66,16:11
66,17:8
66,18:2
66,19:2
66,20:2
66,21:9
66,22:2
66,23:3
66,24:3
66,25:3
66,26:5
66,27:9
66,28:9
66,29:5
66,30:5
66,31:5
66,32:5
66,33:11
66,34:11
66,35:1
66,36:1
66,37:8
66,38:8
66,39:8
66,40:6
66,41:3
66,43:13
66,44:6
66,45:13
66,46:13
66,47:6
66,48:3
66,49:6
66,50:6
66,51:3
66,52:3
66,53:14
66,54:13
66,55:6
66,56:6
66,57:6
66,58:14
66,62:3
66,63:3
66,65:3
66,68:14
66,69:13
66,70:13
66,71:14
66,72:13
66,80:13
69,53:1
69,58:1
69,67:1
69,68:1
69,71:1
70,53:1
70,58:1
70,67:1
70,68:1
70,71:1
72,53:1
72,58:1
72,67:1
72,68:1
72,71:1
73,53:1
73,58:1
73,67:1
73,68:1
73,71:1
74,53:1
74,58:1
74,67:1
74,68:1
74,71:1
75,1:7
75,2:7
75,3:7
75,4:7
75,6:7
75,7:7
75,8:10
75,9:10
75,14:10
75,15:10
75,16:13
75,17:10
75,18:4
75,19:4
75,20:4
75,21:11
75,22:4
75,23:5
75,24:5
75,25:5
75,26:7
75,27:11
75,28:11
75,29:7
75,30:7
75,31:7
75,32:7
75,33:13
75,34:13
75,35:3
75,36:3
75,37:10
75,38:10
75,39:10
75,40:8
75,41:5
75,42:2
75,43:15
75,44:8
75,45:15
75,46:15
75,47:8
75,48:5
75,49:8
75,50:8
75,51:5
75,52:5
75,53:16
75,54:15
75,55:8
75,56:8
75,57:8
75,58:16
75,59:2
75,60:2
75,61:2
75,62:5
75,63:5
75,64:2
75,65:5
75,66:2
75,67:16
75,68:16
75,69:15
75,70:15
75,71:16
75,72:15
75,73:15
75,74:15
75,80:15
76,1:7
76,2:7
76,3:7
76,4:7
76,6:7
76,7:7
76,8:10
76,9:10
76,14:10
76,15:10
76,16:13
76,17:10
76,18:4
76,19:4
76,20:4
76,21:11
76,22:4
76,23:5
76,24:5
76,25:5
76,26:7
76,27:11
76,28:11
76,29:7
76,30:7
76,31:7
76,32:7
76,33:13
76,34:13
76,35:3
76,36:3
76,37:10
76,38:10
76,39:10
76,40:8
76,41:5
76,42:2
76,43:15
76,44:8
76,45:15
76,46:15
76,47:8
76,48:5
76,49:8
76,50:8
76,51:5
76,52:5
76,53:16
76,54:15
76,55:8
76,56:8
76,57:8
76,58:16
76,59:2
76,60:2
76,61:2
76,62:5
76,63:5
76,64:2
76,65:5
76,66:2
76,67:16
76,68:16
76,69:15
76,70:15
76,71:16
76,72:15
76,73:15
76,74:15
76,80:15
77,1:7
77,2:7
77,3:7
77,4:7
77,6:7
77,7:7
77,8:10
77,9:10
77,14:10
77,15:10
77,16:13
77,17:10
77,18:4
77,19:4
77,20:4
77,21:11
77,22:4
77,23:5
77,24:5
77,25:5
77,26:7
77,27:11
77,28:11
77,29:7
77,30:7
77,31:7
77,32:7
77,33:13
77,34:13
77,35:3
77,36:3
77,37:10
77,38:10
77,39:10
77,40:8
77,41:5
77,42:2
77,43:15
77,44:8
77,45:15
77,46:15
77,47:8
77,48:5
77,49:8
77,50:8
77,51:5
77,52:5
77,53:16
77,54:15
77,55:8
77,56:8
77,57:8
77,58:16
77,59:2
77,60:2
77,61:2
77,62:5
77,63:5
77,64:2
77,65:5
77,66:2
77,67:16
77,68:16
77,69:15
77,70:15
77,71:16
77,72:15
77,73:15
77,74:15
77,80:15
78,1:7
78,2:7
78,3:7
78,4:7
78,6:7
78,7:7
78,8:10
78,9:10
78,14:10
78,15:10
78,16:13
78,17:10
78,18:4
78,19:4
78,20:4
78,21:11
78,22:4
78,23:5
78,24:5
78,25:5
78,26:7
78,27:11
78,28:11
78,29:7
78,30:7
78,31:7
78,32:7
78,33:13
78,34:13
78,35:3
78,36:3
78,37:10
78,38:10
78,39:10
78,40:8
78,41:5
78,42:2
78,43:15
78,44:8
78,45:15
78,46:15
78,47:8
78,48:5
78,49:8
78,50:8
78,51:5
78,52:5
78,53:16
78,54:15
78,55:8
78,56:8
78,57:8
78,58:16
78,59:2
78,60:2
78,61:2
78,62:5
78,63:5
78,64:2
78,65:5
78,66:2
78,67:16
78,68:16
78,69:15
78,70:15
78,71:16
78,72:15
78,73:15
78,74:15
78,80:15
79,1:7
79,2:7
79,3:7
79,4:7
79,6:7
79,7:7
79,8:10
79,9:10
79,14:10
79,15:10
79,16:13
79,17:10
79,18:4
79,19:4
79,20:4
79,21:11
79,22:4
79,23:5
79,24:5
79,25:5
79,26:7
79,27:11
79,28:11
79,29:7
79,30:7
79,31:7
79,32:7
79,33:13
79,34:13
79,35:3
79,36:3
79,37:10
79,38:10
79,39:10
79,40:8
79,41:5
79,42:2
79,43:15
79,44:8
79,45:15
79,46:15
79,47:8
79,48:5
79,49:8
79,50:8
79,51:5
79,52:5
79,53:16
79,54:15
79,55:8
79,56:8
79,57:8
79,58:16
79,59:2
79,60:2
79,61:2
79,62:5
79,63:5
79,64:2
79,65:5
79,66:2
79,67:16
79,68:16
79,69:15
79,70:15
79,71:16
79,72:15
79,73:15
79,74:15
79,80:15
80,53:1
80,58:1
80,67:1
80,68:1
80,71:1
81,8:1
81,9:1
81,14:1
81,15:1
81,16:4
81,17:1
81,21:2
81,27:2
81,28:2
81,33:4
81,34:4
81,37:1
81,38:1
81,39:1
81,43:6
81,45:6
81,46:6
81,53:7
81,54:6
81,58:7
81,67:7
81,68:7
81,69:6
81,70:6
81,71:7
81,72:6
81,73:6
81,74:6
81,80:6
82,8:1
82,9:1
82,14:1
82,15:1
82,16:4
82,17:1
82,21:2
82,27:2
82,28:2
82,33:4
82,34:4
82,37:1
82,38:1
82,39:1
82,43:6
82,45:6
82,46:6
82,53:7
82,54:6
82,58:7
82,67:7
82,68:7
82,69:6
82,70:6
82,71:7
82,72:6
82,73:6
82,74:6
82,80:6
83,8:1
83,9:1
83,14:1
83,15:1
83,16:4
83,17:1
83,21:2
83,27:2
83,28:2
83,33:4
83,34:4
83,37:1
83,38:1
83,39:1
83,43:6
83,45:6
83,46:6
83,53:7
83,54:6
83,58:7
83,67:7
83,68:7
83,69:6
83,70:6
83,71:7
83,72:6
83,73:6
83,74:6
83,80:6
84,8:1
84,9:1
84,14:1
84,15:1
84,16:4
84,17:1
84,21:2
84,27:2
84,28:2
84,33:4
84,34:4
84,37:1
84,38:1
84,39:1
84,43:6
84,45:6
84,46:6
84,53:7
84,54:6
84,58:7
84,67:7
84,68:7
84,69:6
84,70:6
84,71:7
84,72:6
84,73:6
84,74:6
84,80:6
85,8:1
85,9:1
85,14:1
85,15:1
85,16:4
85,17:1
85,21:2
85,27:2
85,28:2
85,33:4
85,34:4
85,37:1
85,38:1
85,39:1
85,43:6
85,45:6
85,46:6
85,53:7
85,54:6
85,58:7
85,67:7
85,68:7
85,69:6
85,70:6
85,71:7
85,72:6
85,73:6
85,74:6
85,80:6
86,1:2
86,2:2
86,3:2
86,4:2
86,6:2
86,7:2
86,8:5
86,9:5
86,14:5
86,15:5
86,16:8
86,17:5
86,21:6
86,26:2
86,27:6
86,28:6
86,29:2
86,30:2
86,31:2
86,32:2
86,33:8
86,34:8
86,37:5
86,38:5
86,39:5
86,40:3
86,43:10
86,44:3
86,45:10
86,46:10
86,47:3
86,49:3
86,50:3
86,53:11
86,54:10
86,55:3
86,56:3
86,57:3
86,58:11
86,67:11
86,68:11
86,69:10
86,70:10
86,71:11
86,72:10
86,73:10
86,74:10
86,80:10
86,81:4
86,82:4
86,83:4
86,84:4
86,85:4
87,1:2
87,2:2
87,3:2
87,4:2
87,6:2
87,7:2
87,8:5
87,9:5
87,14:5
87,15:5
87,16:8
87,17:5
87,21:6
87,26:2
87,27:6
87,28:6
87,29:2
87,30:2
87,31:2
87,32:2
87,33:8
87,34:8
87,37:5
87,38:5
87,39:5
87,40:3
87,43:10
87,44:3
87,45:10
87,46:10
87,47:3
87,49:3
87,50:3
87,53:11
87,54:10
87,55:3
87,56:3
87,57:3
87,58:11
87,67:11
87,68:11
87,69:10
87,70:10
87,71:11
87,72:10
87,73:10
87,74:10
87,80:10
87,81:4
87,82:4
87,83:4
87,84:4
87,85:4
88,1:2
88,2:2
88,3:2
88,4:2
88,6:2
88,7:2
88,8:5
88,9:5
88,14:5
88,15:5
88,16:8
88,17:5
88,21:6
88,26:2
88,27:6
88,28:6
88,29:2
88,30:2
88,31:2
88,32:2
88,33:8
88,34:8
88,37:5
88,38:5
88,39:5
88,40:3
88,43:10
88,44:3
88,45:10
88,46:10
88,47:3
88,49:3
88,50:3
88,53:11
88,54:10
88,55:3
88,56:3
88,57:3
88,58:11
88,67:11
88,68:11
88,69:10
88,70:10
88,71:11
88,72:10
88,73:10
88,74:10
88,80:10
88,81:4
88,82:4
88,83:4
88,84:4
88,85:4
89,1:2
89,2:2
89,3:2
89,4:2
89,6:2
89,7:2
89,8:5
89,9:5
89,14:5
89,15:5
89,16:8
89,17:5
89,21:6
89,26:2
89,27:6
89,28:6
89,29:2
89,30:2
89,31:2
89,32:2
89,33:8
89,34:8
89,37:5
89,38:5
89,39:5
89,40:3
89,43:10
89,44:3
89,45:10
89,46:10
89,47:3
89,49:3
89,50:3
89,53:11
89,54:10
89,55:3
89,56:3
89,57:3
89,58:11
89,67:11
89,68:11
89,69:10
89,70:10
89,71:11
89,72:10
89,73:10
89,74:10
89,80:10
89,81:4
89,82:4
89,83:4
89,84:4
89,85:4

<end>

<optimal SALBP-1 value>
19


<rand seed>
467321153

